[SCIP matching-ii] n=92103 bank=73253.4780 valid=True time=7200.0s
[SCIP matching-ii] warm-start bank accepted=True
1/1 feasible solution given by solution candidate storage, new primal bound 7.325348e+04

presolving:
(round 1, exhaustive) 6 del vars, 0 del conss, 0 add conss, 0 chg bounds, 0 chg sides, 0 chg coeffs, 29992 upgd conss, 0 impls, 29992 clqs, 0 implints
   (5.9s) probing: 51/92097 (0.1%) - 0 fixings, 0 aggregations, 0 implications, 0 bound changes
   (5.9s) probing aborted: 50/50 successive totally useless probings
   (6.4s) symmetry computation started: requiring (bin +, int +, cont +), (fixed: bin -, int -, cont -)
   (6.9s) no symmetry present (symcode time: 0.10)
presolving (2 rounds: 2 fast, 2 medium, 2 exhaustive):
 6 deleted vars, 0 deleted constraints, 0 added constraints, 0 tightened bounds, 0 added holes, 0 changed sides, 0 changed coefficients
 0 implications, 29992 cliques, 0 implied integral variables (0 bin, 0 int, 0 cont)
presolved problem has 92097 variables (92097 bin, 0 int, 0 cont) and 29992 constraints
  29992 constraints of type <setppc>
transformed objective value is always integral (scale: 0.001)
Presolving Time: 6.04
transformed 2/2 original solutions to the transformed problem space

